container_length = 52;
container_width = 30;
container_height = 18;
n = 7;
boxes = [|3, 3, 2, 24
         |7, 3, 2, 9
         |9, 2, 2, 23
         |4, 4, 2, 31
         |15,3, 3, 20
         |5, 4, 2, 13
         |2, 2, 2, 10|];
